%SETS
JOBS     = 1..2;
MACHINES = 1..18;
SPEED    = 1;

time               = array3d(JOBS,MACHINES,1..SPEED,[80, 88, 98, 81, 51, 80, 20, 67, 22, 95, 56, 47, 33, 79, 51, 61, 11, 65, 65, 65, 94, 71, 42, 49, 72, 15, 70, 70, 28, 21, 38, 42, 61, 49, 98, 19]);
energy             = array3d(JOBS,MACHINES,1..SPEED,[44, 41, 37, 44, 60, 44, 81, 51, 80, 38, 57, 62, 71, 45, 60, 54, 89, 52, 52, 52, 39, 49, 65, 61, 48, 86, 49, 49, 75, 81, 68, 65, 54, 61, 37, 82]);
precedence         = array2d(JOBS,MACHINES,[6,5,0,17,15,8,2,9,13,4,10,3,16,7,12,14,1,11,16,15,14,10,13,17,1,7,4,3,2,8,9,0,12,5,11,6]);